solution status: optimal solution found
objective value:                                   14
$_65_y                                             14 	(obj:0)
$_65_z                                             11 	(obj:0)
$_203_y                                            17 	(obj:0)
$_203_z                                            18 	(obj:0)
$_114_y                                            19 	(obj:0)
$_114_z                                            17 	(obj:0)
$_118_y                                            15 	(obj:0)
$_118_z                                            19 	(obj:0)
$_121_y                                            15 	(obj:0)
$_121_z                                            20 	(obj:0)
$_43_y                                             18 	(obj:0)
$_43_z                                             18 	(obj:0)
$_24__2_y                                          18 	(obj:0)
$_24__2_z                                          17 	(obj:0)
$_19__2_y                                          19 	(obj:0)
$_19__2_z                                          19 	(obj:0)
$_25__2_y                                          18 	(obj:0)
$_25__2_z                                          13 	(obj:0)
$_154_y                                            18 	(obj:0)
$_154_z                                            19 	(obj:0)
$_20__2_y                                          17 	(obj:0)
$_20__2_z                                          20 	(obj:0)
$_23__2_y                                          15 	(obj:0)
$_23__2_z                                          18 	(obj:0)
$_195_y                                            17 	(obj:0)
$_195_z                                            19 	(obj:0)
$_74_y                                             14 	(obj:0)
$_74_z                                             15 	(obj:0)
$_111_y                                            19 	(obj:0)
$_111_z                                            15 	(obj:0)
$_135_y                                            14 	(obj:0)
$_135_z                                            14 	(obj:0)
$_81_y                                             18 	(obj:0)
$_81_z                                             15 	(obj:0)
$_125_y                                            17 	(obj:0)
$_125_z                                            15 	(obj:0)
$_80_y                                             14 	(obj:0)
$_80_z                                             12 	(obj:0)
$_18__2_y                                          16 	(obj:0)
$_18__2_z                                          20 	(obj:0)
$_162_y                                            17 	(obj:0)
$_162_z                                            17 	(obj:0)
$_236_y                                            16 	(obj:0)
$_236_z                                            16 	(obj:0)
$_75_y                                             18 	(obj:0)
$_75_z                                             16 	(obj:0)
$_132_y                                            14 	(obj:0)
$_132_z                                            13 	(obj:0)
$_21__2_y                                          20 	(obj:0)
$_21__2_z                                          11 	(obj:0)
$_244_y                                            16 	(obj:0)
$_244_z                                            15 	(obj:0)
$_22__2_y                                          20 	(obj:0)
$_22__2_z                                          20 	(obj:0)
$_128_y                                            17 	(obj:0)
$_128_z                                            16 	(obj:0)
x60                                                 1 	(obj:1)
x62                                                 1 	(obj:1)
x78                                                 1 	(obj:1)
x79                                                 1 	(obj:1)
x80                                                 1 	(obj:1)
x86                                                 1 	(obj:1)
x88                                                 1 	(obj:1)
x103                                                1 	(obj:1)
x106                                                2 	(obj:1)
x107                                                1 	(obj:1)
x110                                                1 	(obj:1)
x117                                                1 	(obj:1)
x120                                                1 	(obj:1)
